proyfinal/src/viki/013/andrea/andrea-localstore/experimentInOfficeAgust.take6/worker_3/b066ae35-d4bf-46b4-bc49-93ef7b221c8e.als.cnf.out
Reading from standard input... Use '--help' for help.
============================[ Problem Statistics ]=============================
|                                                                             |
|  Number of variables:         87638                                         |
|  Number of clauses:          161767                                         |
|  Parse time:                   0.04 s                                       |
|                                                                             |
============================[ Search Statistics ]==============================
| Conflicts |          ORIGINAL         |          LEARNT          | Progress |
|           |    Vars  Clauses Literals |    Limit  Clauses Lit/Cl |          |
===============================================================================
|       100 |   61881   103565   258333 |    37973      100     47 | 29.390 % |
|       250 |   61861   103486   258151 |    41771      248     56 | 29.413 % |
|       475 |   61861   103486   258151 |    45948      473     88 | 29.413 % |
|       812 |   61861   103486   258151 |    50543      810     81 | 29.413 % |
|      1318 |   61861   103486   258151 |    55597     1316     74 | 29.413 % |
|      2077 |   61861   103486   258151 |    61157     2075     97 | 29.413 % |
|      3216 |   61861   103486   258151 |    67272     3214    101 | 29.413 % |
|      4924 |   61860   103442   258061 |    74000     4915    100 | 29.414 % |
|      7486 |   61860   103442   258061 |    81400     7477     99 | 29.414 % |
|     11330 |   50638    70352   176939 |    89540    10303     95 | 42.219 % |
===============================================================================
restarts              : 61
conflicts             : 13849          (7540 /sec)
decisions             : 46148          (0.00 % random) (25127 /sec)
propagations          : 18522639       (10085189 /sec)
conflict literals     : 1170371        (48.75 % deleted)
Memory used           : 38.64 MB
CPU time              : 1.83662 s

UNSATISFIABLE
